%%% static parameters %%%
timespan = 1;
Clients_N = [1000];
Demand_W = [15];
Lt0 = [4];
Lt1 = [4];
SS_ = [0.85];
DS_D = [20];
K = [200];
MA = [500];
HC = [0.05];
%%% dynamic parameters %%%
lost_ratio_sales_ret_th = 0.0029648351510745464;
lost_ratio_sales_ret_w = 60;
lost_ratio_sales_dis_th = 0.00699729978253319;
lost_ratio_sales_dis_w = 13;
lost_ratio_sales_fac_th = 0.00807058983384887;
lost_ratio_sales_fac_w = 67;
stock_customer_MA_mean_relative_th = 0.6307564196507406;
stock_customer_MA_mean_relative_w = 13;
stock_distributor_MA_mean_relative_th = 0.8286982978724594;
stock_distributor_MA_mean_relative_w = 68;
stock_retailer_MA_mean_relative_th = 0.2257663355071987;
stock_retailer_MA_mean_relative_w = 88;
stock_factory_MA_mean_relative_th = 0.38760698013803674;
stock_factory_MA_mean_relative_w = 100;
